#include ParMA package
include ParMA.gfn

#open the csv file in gretl
dataset open "data/NEE24_polydata_parma.csv" --quiet

#define X variables
list X = Range.Size..km2. L1.Population Island.Endemic Distance.to.Mainland Distance.to.Continent ev
#always include ev
list focus = ev
#define starting variables
starting = {1,0,0,0,0,0;
            0,1,0,0,0,0;
            0,0,1,0,0,0;
            0,0,0,1,0,0;
            0,0,0,0,1,0;
            0,0,0,0,0,1}
#define model type
modeltype = "gaussian"
#initiate parallel MCMC
bundle param = defbundle("start",starting,"focus",focus,"mpi",6,"seed",271828)
#define MCMC
n_iter = 1000000
burn_in=10000
param.resamp=1
#run
b = bma_glm(Phoneme.Inventory.Size, X, modeltype, n_iter, burn_in, param)
#check for convergence, high autocorrelation
c = mcmc_checks(b, "plot")
c = mcmc_checks(b, "ESS")
c = mcmc_checks(b, "Geweke")
c = mcmc_checks(b, "HW")

# Posterior inclusion probabilities
matrix pip1 = mcmc_pip(b)
outfile "output/NEE24/pip_poly.csv" --write
    printf "Variable,PIP\n"
    loop i=1..nelem(pip1)
        printf "%s,%g\n", varname(X[i]), pip1[i]
    endloop
outfile

# Posterior coefficient summaries
matrix coef1 = mcmc_coef(b)
outfile "output/NEE24/coef_poly.csv" --write
    printf "Variable,Mean,SD,Lower95,Upper95\n"
    loop i=1..rows(coef1)
        printf "%s,%g,%g,%g,%g\n", varname(X[i]), coef1[i,1], coef1[i,2], coef1[i,3], coef1[i,4]
    endloop
outfile

# Posterior model probabilities
matrix probs1 = mcmc_model_probs(b)
outfile "output/NEE24/model_probs_poly.csv" --write
    printf "Model,Probability\n"
    loop i=1..rows(probs1)
        printf "%d,%g\n", i, probs1[i]
    endloop
outfile